NAME: cuum600.tsp
TYPE: TSP
COMMENT: User-generated TSP file
DIMENSION: 600
EDGE_WEIGHT_TYPE: EUC_2D
NODE_COORD_SECTION
1 82.0 318.0
2 45.0 293.0
3 210.0 167.0
4 514.0 200.0
5 469.0 161.0
6 517.0 256.0
7 288.0 193.0
8 28.0 554.0
9 590.0 148.0
10 480.0 124.0
11 405.0 372.0
12 208.0 69.0
13 489.0 15.0
14 190.0 88.0
15 280.0 375.0
16 319.0 367.0
17 83.0 153.0
18 254.0 328.0
19 143.0 494.0
20 567.0 107.0
21 119.0 263.0
22 438.0 430.0
23 433.0 318.0
24 118.0 240.0
25 472.0 495.0
26 48.0 271.0
27 268.0 480.0
28 591.0 390.0
29 358.0 579.0
30 8.0 526.0
31 166.0 334.0
32 252.0 278.0
33 417.0 506.0
34 351.0 273.0
35 582.0 531.0
36 553.0 199.0
37 6.0 562.0
38 49.0 575.0
39 415.0 449.0
40 263.0 297.0
41 101.0 314.0
42 123.0 478.0
43 457.0 484.0
44 251.0 548.0
45 169.0 375.0
46 230.0 437.0
47 126.0 89.0
48 339.0 336.0
49 310.0 542.0
50 579.0 480.0
51 591.0 600.0
52 149.0 115.0
53 440.0 17.0
54 532.0 147.0
55 574.0 12.0
56 573.0 208.0
57 554.0 107.0
58 12.0 335.0
59 273.0 371.0
60 135.0 449.0
61 464.0 351.0
62 194.0 185.0
63 517.0 334.0
64 521.0 268.0
65 456.0 188.0
66 166.0 172.0
67 22.0 238.0
68 594.0 163.0
69 556.0 217.0
70 202.0 217.0
71 154.0 179.0
72 425.0 466.0
73 179.0 339.0
74 510.0 390.0
75 598.0 572.0
76 526.0 198.0
77 409.0 152.0
78 444.0 1.0
79 341.0 65.0
80 150.0 250.0
81 234.0 262.0
82 557.0 91.0
83 396.0 306.0
84 440.0 532.0
85 321.0 440.0
86 546.0 591.0
87 517.0 410.0
88 28.0 137.0
89 99.0 506.0
90 534.0 63.0
91 238.0 112.0
92 394.0 139.0
93 246.0 382.0
94 137.0 472.0
95 434.0 373.0
96 558.0 48.0
97 394.0 225.0
98 590.0 288.0
99 469.0 531.0
100 80.0 561.0
101 484.0 229.0
102 314.0 359.0
103 201.0 65.0
104 74.0 456.0
105 384.0 58.0
106 336.0 452.0
107 23.0 599.0
108 353.0 375.0
109 74.0 331.0
110 230.0 360.0
111 369.0 211.0
112 578.0 257.0
113 7.0 70.0
114 363.0 387.0
115 436.0 418.0
116 300.0 492.0
117 109.0 451.0
118 294.0 480.0
119 109.0 67.0
120 489.0 79.0
121 114.0 317.0
122 596.0 122.0
123 254.0 47.0
124 434.0 501.0
125 370.0 579.0
126 369.0 75.0
127 199.0 150.0
128 428.0 189.0
129 459.0 167.0
130 453.0 406.0
131 591.0 577.0
132 573.0 40.0
133 238.0 250.0
134 53.0 348.0
135 152.0 511.0
136 99.0 183.0
137 584.0 474.0
138 333.0 391.0
139 459.0 304.0
140 352.0 474.0
141 403.0 429.0
142 573.0 154.0
143 336.0 558.0
144 183.0 59.0
145 389.0 491.0
146 109.0 227.0
147 231.0 108.0
148 488.0 206.0
149 53.0 292.0
150 244.0 523.0
151 313.0 160.0
152 568.0 182.0
153 218.0 262.0
154 435.0 6.0
155 135.0 527.0
156 50.0 270.0
157 511.0 559.0
158 502.0 509.0
159 587.0 231.0
160 175.0 221.0
161 181.0 558.0
162 415.0 460.0
163 506.0 341.0
164 105.0 69.0
165 594.0 108.0
166 199.0 150.0
167 311.0 5.0
168 360.0 246.0
169 7.0 371.0
170 335.0 237.0
171 450.0 68.0
172 88.0 131.0
173 431.0 507.0
174 550.0 600.0
175 4.0 143.0
176 433.0 328.0
177 343.0 444.0
178 282.0 228.0
179 323.0 123.0
180 210.0 135.0
181 163.0 204.0
182 35.0 332.0
183 92.0 8.0
184 218.0 395.0
185 508.0 349.0
186 402.0 550.0
187 575.0 230.0
188 161.0 274.0
189 1.0 522.0
190 328.0 572.0
191 213.0 151.0
192 376.0 448.0
193 319.0 519.0
194 397.0 158.0
195 56.0 161.0
196 385.0 88.0
197 192.0 339.0
198 255.0 476.0
199 443.0 19.0
200 335.0 149.0
201 197.0 392.0
202 418.0 521.0
203 275.0 519.0
204 37.0 243.0
205 442.0 531.0
206 599.0 373.0
207 43.0 341.0
208 408.0 465.0
209 453.0 57.0
210 181.0 584.0
211 506.0 334.0
212 331.0 316.0
213 437.0 84.0
214 288.0 111.0
215 426.0 166.0
216 447.0 224.0
217 461.0 258.0
218 142.0 85.0
219 451.0 431.0
220 480.0 408.0
221 310.0 410.0
222 290.0 533.0
223 390.0 251.0
224 137.0 488.0
225 343.0 104.0
226 286.0 509.0
227 298.0 521.0
228 532.0 267.0
229 549.0 513.0
230 330.0 206.0
231 67.0 459.0
232 231.0 219.0
233 255.0 507.0
234 307.0 483.0
235 212.0 89.0
236 58.0 591.0
237 129.0 479.0
238 478.0 547.0
239 51.0 330.0
240 414.0 51.0
241 541.0 188.0
242 145.0 419.0
243 353.0 346.0
244 177.0 267.0
245 506.0 243.0
246 335.0 110.0
247 469.0 365.0
248 516.0 392.0
249 331.0 4.0
250 376.0 345.0
251 496.0 159.0
252 284.0 132.0
253 366.0 577.0
254 182.0 167.0
255 100.0 229.0
256 371.0 277.0
257 108.0 382.0
258 335.0 136.0
259 279.0 443.0
260 582.0 333.0
261 14.0 350.0
262 330.0 307.0
263 508.0 152.0
264 438.0 79.0
265 429.0 417.0
266 506.0 329.0
267 188.0 585.0
268 204.0 306.0
269 72.0 315.0
270 560.0 270.0
271 138.0 135.0
272 547.0 523.0
273 484.0 64.0
274 346.0 439.0
275 60.0 597.0
276 242.0 90.0
277 429.0 483.0
278 61.0 275.0
279 298.0 39.0
280 574.0 273.0
281 121.0 148.0
282 256.0 598.0
283 159.0 114.0
284 316.0 481.0
285 190.0 512.0
286 200.0 328.0
287 103.0 265.0
288 102.0 499.0
289 286.0 586.0
290 403.0 544.0
291 385.0 52.0
292 524.0 391.0
293 468.0 378.0
294 464.0 594.0
295 190.0 12.0
296 304.0 588.0
297 101.0 418.0
298 183.0 54.0
299 80.0 441.0
300 480.0 58.0
301 99.0 553.0
302 53.0 472.0
303 337.0 271.0
304 546.0 443.0
305 392.0 425.0
306 272.0 352.0
307 23.0 411.0
308 100.0 245.0
309 427.0 256.0
310 97.0 361.0
311 452.0 420.0
312 100.0 275.0
313 306.0 374.0
314 509.0 515.0
315 265.0 42.0
316 312.0 522.0
317 133.0 400.0
318 468.0 259.0
319 25.0 63.0
320 289.0 135.0
321 568.0 79.0
322 241.0 7.0
323 416.0 163.0
324 68.0 475.0
325 575.0 563.0
326 462.0 428.0
327 75.0 205.0
328 502.0 181.0
329 50.0 452.0
330 291.0 506.0
331 586.0 114.0
332 336.0 328.0
333 390.0 472.0
334 448.0 346.0
335 79.0 230.0
336 171.0 47.0
337 105.0 141.0
338 26.0 299.0
339 43.0 529.0
340 102.0 466.0
341 277.0 4.0
342 22.0 1.0
343 265.0 337.0
344 307.0 204.0
345 327.0 114.0
346 305.0 544.0
347 47.0 532.0
348 74.0 454.0
349 441.0 552.0
350 463.0 50.0
351 153.0 70.0
352 582.0 231.0
353 433.0 403.0
354 13.0 113.0
355 498.0 34.0
356 538.0 231.0
357 75.0 351.0
358 84.0 226.0
359 181.0 504.0
360 457.0 234.0
361 45.0 466.0
362 382.0 218.0
363 309.0 389.0
364 340.0 39.0
365 312.0 22.0
366 490.0 570.0
367 181.0 574.0
368 230.0 6.0
369 216.0 130.0
370 14.0 296.0
371 7.0 278.0
372 337.0 120.0
373 27.0 216.0
374 518.0 154.0
375 343.0 266.0
376 463.0 76.0
377 455.0 589.0
378 544.0 160.0
379 582.0 544.0
380 451.0 571.0
381 82.0 463.0
382 113.0 367.0
383 186.0 529.0
384 456.0 458.0
385 10.0 321.0
386 87.0 561.0
387 479.0 436.0
388 496.0 408.0
389 56.0 91.0
390 397.0 82.0
391 391.0 586.0
392 13.0 474.0
393 300.0 298.0
394 327.0 423.0
395 176.0 189.0
396 590.0 93.0
397 134.0 550.0
398 27.0 194.0
399 90.0 189.0
400 14.0 89.0
401 130.0 413.0
402 479.0 539.0
403 102.0 322.0
404 305.0 490.0
405 328.0 322.0
406 517.0 376.0
407 19.0 214.0
408 519.0 266.0
409 328.0 91.0
410 592.0 538.0
411 135.0 106.0
412 101.0 5.0
413 3.0 327.0
414 553.0 18.0
415 584.0 382.0
416 92.0 551.0
417 318.0 444.0
418 544.0 417.0
419 462.0 392.0
420 11.0 365.0
421 547.0 4.0
422 596.0 533.0
423 318.0 193.0
424 574.0 600.0
425 497.0 524.0
426 192.0 405.0
427 223.0 519.0
428 463.0 317.0
429 23.0 304.0
430 391.0 147.0
431 197.0 86.0
432 331.0 202.0
433 280.0 362.0
434 228.0 344.0
435 490.0 350.0
436 85.0 22.0
437 349.0 279.0
438 16.0 268.0
439 592.0 348.0
440 292.0 480.0
441 517.0 468.0
442 582.0 532.0
443 393.0 467.0
444 361.0 257.0
445 364.0 198.0
446 133.0 243.0
447 188.0 267.0
448 183.0 29.0
449 597.0 552.0
450 423.0 48.0
451 388.0 169.0
452 135.0 313.0
453 181.0 34.0
454 21.0 527.0
455 339.0 369.0
456 247.0 417.0
457 567.0 109.0
458 579.0 128.0
459 28.0 243.0
460 443.0 274.0
461 34.0 157.0
462 381.0 593.0
463 85.0 537.0
464 329.0 151.0
465 293.0 352.0
466 3.0 152.0
467 219.0 478.0
468 19.0 264.0
469 571.0 395.0
470 126.0 28.0
471 586.0 478.0
472 147.0 145.0
473 586.0 262.0
474 40.0 224.0
475 33.0 484.0
476 455.0 353.0
477 139.0 158.0
478 171.0 139.0
479 595.0 343.0
480 456.0 149.0
481 186.0 453.0
482 195.0 450.0
483 119.0 405.0
484 159.0 118.0
485 260.0 294.0
486 369.0 219.0
487 117.0 366.0
488 477.0 213.0
489 427.0 326.0
490 288.0 166.0
491 59.0 49.0
492 24.0 127.0
493 406.0 294.0
494 32.0 135.0
495 175.0 389.0
496 500.0 415.0
497 174.0 527.0
498 320.0 172.0
499 119.0 302.0
500 287.0 174.0
501 453.0 237.0
502 569.0 263.0
503 512.0 204.0
504 237.0 352.0
505 270.0 479.0
506 485.0 206.0
507 275.0 48.0
508 42.0 588.0
509 174.0 124.0
510 583.0 61.0
511 440.0 137.0
512 185.0 356.0
513 15.0 296.0
514 266.0 391.0
515 225.0 312.0
516 323.0 177.0
517 307.0 583.0
518 592.0 4.0
519 171.0 513.0
520 212.0 150.0
521 442.0 502.0
522 494.0 547.0
523 351.0 112.0
524 102.0 116.0
525 18.0 563.0
526 205.0 220.0
527 353.0 519.0
528 463.0 299.0
529 362.0 132.0
530 373.0 280.0
531 262.0 61.0
532 581.0 208.0
533 262.0 269.0
534 92.0 84.0
535 95.0 95.0
536 240.0 508.0
537 419.0 172.0
538 74.0 71.0
539 209.0 196.0
540 138.0 528.0
541 463.0 509.0
542 337.0 46.0
543 594.0 405.0
544 510.0 476.0
545 346.0 28.0
546 560.0 149.0
547 19.0 207.0
548 333.0 366.0
549 199.0 24.0
550 51.0 521.0
551 90.0 449.0
552 362.0 290.0
553 93.0 496.0
554 211.0 391.0
555 191.0 12.0
556 318.0 191.0
557 449.0 500.0
558 460.0 73.0
559 82.0 329.0
560 138.0 281.0
561 43.0 343.0
562 387.0 108.0
563 506.0 583.0
564 95.0 274.0
565 442.0 7.0
566 411.0 325.0
567 52.0 557.0
568 535.0 161.0
569 77.0 189.0
570 53.0 515.0
571 492.0 202.0
572 79.0 348.0
573 16.0 494.0
574 144.0 194.0
575 273.0 563.0
576 235.0 419.0
577 462.0 580.0
578 426.0 31.0
579 9.0 67.0
580 39.0 17.0
581 457.0 76.0
582 199.0 478.0
583 152.0 135.0
584 592.0 325.0
585 179.0 446.0
586 223.0 581.0
587 528.0 113.0
588 440.0 377.0
589 519.0 293.0
590 560.0 399.0
591 318.0 447.0
592 94.0 418.0
593 383.0 342.0
594 257.0 290.0
595 139.0 559.0
596 231.0 102.0
597 457.0 533.0
598 586.0 397.0
599 272.0 94.0
600 447.0 236.0
EOF





